(set-logic QF_S)
(declare-fun var_0xINPUT_281197 () String)
(assert (and (= (len var_0xINPUT_281197) 0) (= (len var_0xINPUT_281197) 0) (not (= var_0xINPUT_281197 "CQALcCP5TB"))))
(check-sat var_0xINPUT_281197)